4 1 3 4 4 0 0 0 0 0 0 0 0 1 1 1 2 3 8 4 5 7 10 6 9 11 12 1 1 1 1 1 1 1 1 1 1 1 1 1 1 1 1 1 1 1 1 1 1 1 1 1 1 1 1 1 1 1 328 
4 1 3 4 4 0 0 0 0 0 0 0 0 1 1 1 2 3 8 4 7 10 5 6 9 11 12 1 1 1 1 1 1 1 1 1 1 1 1 1 1 1 1 1 1 1 1 1 1 1 1 1 1 1 1 1 1 1 324 
4 1 3 4 4 0 0 0 0 0 0 0 0 1 1 1 2 3 8 4 10 7 5 6 9 11 12 1 1 1 1 1 1 1 1 1 1 1 1 1 1 1 1 1 1 1 1 1 1 1 1 1 1 1 1 1 1 1 318 
4 1 3 4 4 0 0 0 0 0 0 0 0 1 1 1 2 3 8 4 12 11 5 6 7 10 9 1 1 1 1 1 1 1 1 1 1 1 1 1 1 1 1 1 1 1 1 1 1 1 1 1 1 1 1 1 1 1 316 
4 1 3 4 4 0 0 0 0 0 0 0 0 1 1 1 2 3 8 4 12 11 9 5 6 7 10 1 1 1 1 1 1 1 1 1 1 1 1 1 1 1 1 1 1 1 1 1 1 1 1 1 1 1 1 1 1 1 314 
4 1 3 4 4 0 0 0 0 0 0 0 0 1 1 1 2 3 8 4 12 11 9 5 7 10 6 1 1 1 1 1 1 1 1 1 1 1 1 1 1 1 1 1 1 1 1 1 1 1 1 1 1 1 1 1 1 1 308 
4 1 3 4 4 0 0 0 0 0 0 0 0 1 1 1 2 5 8 3 10 7 6 4 12 11 9 1 1 1 1 1 1 1 1 1 1 1 1 1 1 1 1 1 1 1 1 1 1 1 1 1 1 1 1 1 1 1 306 
4 1 3 4 4 0 0 0 0 0 0 0 0 1 1 1 2 8 6 3 10 7 5 4 12 11 9 1 1 1 1 1 1 1 1 1 1 1 1 1 1 1 1 1 1 1 1 1 1 1 1 1 1 1 1 1 1 1 304 
4 1 3 4 4 0 0 0 0 0 0 0 0 1 1 1 2 8 9 3 4 5 6 7 10 11 12 1 1 1 1 1 1 1 1 1 1 1 1 1 1 1 1 1 1 1 1 1 1 1 1 1 1 1 1 1 1 1 302 
4 1 3 4 4 0 0 0 0 0 0 0 0 1 1 1 3 10 8 2 5 7 6 4 12 11 9 1 1 1 1 1 1 1 1 1 1 1 1 1 1 1 1 1 1 1 1 1 1 1 1 1 1 1 1 1 1 1 296 
4 1 3 4 4 0 0 0 0 0 0 0 0 1 1 1 5 8 9 2 3 7 6 4 12 11 10 1 1 1 1 1 1 1 1 1 1 1 1 1 1 1 1 1 1 1 1 1 1 1 1 1 1 1 1 1 1 1 292 
